p cnf 393 1098
-17 1 0
-17 2 0
17 -1 -2 0
-18 3 0
-18 4 0
18 -3 -4 0
-19 17 0
-19 18 0
19 -17 -18 0
-20 2 0
-20 5 0
20 -2 -5 0
-21 1 0
-21 4 0
21 -1 -4 0
-22 20 0
-22 21 0
22 -20 -21 0
-23 -20 0
-23 -21 0
23 20 21 0
-24 -22 0
-24 -23 0
24 22 23 0
-25 19 0
-25 24 0
25 -19 -24 0
-26 -19 0
-26 -24 0
26 19 24 0
-27 -25 0
-27 -26 0
27 25 26 0
-28 3 0
-28 6 0
28 -3 -6 0
-29 27 0
-29 28 0
29 -27 -28 0
-30 -22 0
-30 -25 0
30 22 25 0
-31 2 0
-31 7 0
31 -2 -7 0
-32 4 0
-32 5 0
32 -4 -5 0
-33 31 0
-33 32 0
33 -31 -32 0
-34 -31 0
-34 -32 0
34 31 32 0
-35 -33 0
-35 -34 0
35 33 34 0
-36 -30 0
-36 35 0
36 30 -35 0
-37 30 0
-37 -35 0
37 -30 35 0
-38 -36 0
-38 -37 0
38 36 37 0
-39 1 0
-39 6 0
39 -1 -6 0
-40 38 0
-40 39 0
40 -38 -39 0
-41 -38 0
-41 -39 0
41 38 39 0
-42 -40 0
-42 -41 0
42 40 41 0
-43 29 0
-43 42 0
43 -29 -42 0
-44 -29 0
-44 -42 0
44 29 42 0
-45 -43 0
-45 -44 0
45 43 44 0
-46 3 0
-46 8 0
46 -3 -8 0
-47 45 0
-47 46 0
47 -45 -46 0
-48 -40 0
-48 -43 0
48 40 43 0
-49 -33 0
-49 -36 0
49 33 36 0
-50 2 0
-50 9 0
50 -2 -9 0
-51 4 0
-51 7 0
51 -4 -7 0
-52 50 0
-52 51 0
52 -50 -51 0
-53 -50 0
-53 -51 0
53 50 51 0
-54 -52 0
-54 -53 0
54 52 53 0
-55 -49 0
-55 54 0
55 49 -54 0
-56 49 0
-56 -54 0
56 -49 54 0
-57 -55 0
-57 -56 0
57 55 56 0
-58 5 0
-58 6 0
58 -5 -6 0
-59 57 0
-59 58 0
59 -57 -58 0
-60 -57 0
-60 -58 0
60 57 58 0
-61 -59 0
-61 -60 0
61 59 60 0
-62 -48 0
-62 61 0
62 48 -61 0
-63 48 0
-63 -61 0
63 -48 61 0
-64 -62 0
-64 -63 0
64 62 63 0
-65 1 0
-65 8 0
65 -1 -8 0
-66 64 0
-66 65 0
66 -64 -65 0
-67 -64 0
-67 -65 0
67 64 65 0
-68 -66 0
-68 -67 0
68 66 67 0
-69 47 0
-69 68 0
69 -47 -68 0
-70 -47 0
-70 -68 0
70 47 68 0
-71 -69 0
-71 -70 0
71 69 70 0
-72 3 0
-72 10 0
72 -3 -10 0
-73 71 0
-73 72 0
73 -71 -72 0
-74 -66 0
-74 -69 0
74 66 69 0
-75 -59 0
-75 -62 0
75 59 62 0
-76 -52 0
-76 -55 0
76 52 55 0
-77 2 0
-77 11 0
77 -2 -11 0
-78 4 0
-78 9 0
78 -4 -9 0
-79 77 0
-79 78 0
79 -77 -78 0
-80 -77 0
-80 -78 0
80 77 78 0
-81 -79 0
-81 -80 0
81 79 80 0
-82 -76 0
-82 81 0
82 76 -81 0
-83 76 0
-83 -81 0
83 -76 81 0
-84 -82 0
-84 -83 0
84 82 83 0
-85 6 0
-85 7 0
85 -6 -7 0
-86 84 0
-86 85 0
86 -84 -85 0
-87 -84 0
-87 -85 0
87 84 85 0
-88 -86 0
-88 -87 0
88 86 87 0
-89 -75 0
-89 88 0
89 75 -88 0
-90 75 0
-90 -88 0
90 -75 88 0
-91 -89 0
-91 -90 0
91 89 90 0
-92 5 0
-92 8 0
92 -5 -8 0
-93 91 0
-93 92 0
93 -91 -92 0
-94 -91 0
-94 -92 0
94 91 92 0
-95 -93 0
-95 -94 0
95 93 94 0
-96 -74 0
-96 95 0
96 74 -95 0
-97 74 0
-97 -95 0
97 -74 95 0
-98 -96 0
-98 -97 0
98 96 97 0
-99 1 0
-99 10 0
99 -1 -10 0
-100 98 0
-100 99 0
100 -98 -99 0
-101 -98 0
-101 -99 0
101 98 99 0
-102 -100 0
-102 -101 0
102 100 101 0
-103 73 0
-103 102 0
103 -73 -102 0
-104 -73 0
-104 -102 0
104 73 102 0
-105 -103 0
-105 -104 0
105 103 104 0
-106 3 0
-106 12 0
106 -3 -12 0
-107 105 0
-107 106 0
107 -105 -106 0
-108 -100 0
-108 -103 0
108 100 103 0
-109 -93 0
-109 -96 0
109 93 96 0
-110 -86 0
-110 -89 0
110 86 89 0
-111 -79 0
-111 -82 0
111 79 82 0
-112 2 0
-112 13 0
112 -2 -13 0
-113 4 0
-113 11 0
113 -4 -11 0
-114 112 0
-114 113 0
114 -112 -113 0
-115 -112 0
-115 -113 0
115 112 113 0
-116 -114 0
-116 -115 0
116 114 115 0
-117 -111 0
-117 116 0
117 111 -116 0
-118 111 0
-118 -116 0
118 -111 116 0
-119 -117 0
-119 -118 0
119 117 118 0
-120 6 0
-120 9 0
120 -6 -9 0
-121 119 0
-121 120 0
121 -119 -120 0
-122 -119 0
-122 -120 0
122 119 120 0
-123 -121 0
-123 -122 0
123 121 122 0
-124 -110 0
-124 123 0
124 110 -123 0
-125 110 0
-125 -123 0
125 -110 123 0
-126 -124 0
-126 -125 0
126 124 125 0
-127 7 0
-127 8 0
127 -7 -8 0
-128 126 0
-128 127 0
128 -126 -127 0
-129 -126 0
-129 -127 0
129 126 127 0
-130 -128 0
-130 -129 0
130 128 129 0
-131 -109 0
-131 130 0
131 109 -130 0
-132 109 0
-132 -130 0
132 -109 130 0
-133 -131 0
-133 -132 0
133 131 132 0
-134 5 0
-134 10 0
134 -5 -10 0
-135 133 0
-135 134 0
135 -133 -134 0
-136 -133 0
-136 -134 0
136 133 134 0
-137 -135 0
-137 -136 0
137 135 136 0
-138 -108 0
-138 137 0
138 108 -137 0
-139 108 0
-139 -137 0
139 -108 137 0
-140 -138 0
-140 -139 0
140 138 139 0
-141 1 0
-141 12 0
141 -1 -12 0
-142 140 0
-142 141 0
142 -140 -141 0
-143 -140 0
-143 -141 0
143 140 141 0
-144 -142 0
-144 -143 0
144 142 143 0
-145 107 0
-145 144 0
145 -107 -144 0
-146 -107 0
-146 -144 0
146 107 144 0
-147 -145 0
-147 -146 0
147 145 146 0
-148 3 0
-148 14 0
148 -3 -14 0
-149 147 0
-149 148 0
149 -147 -148 0
-150 -142 0
-150 -145 0
150 142 145 0
-151 -135 0
-151 -138 0
151 135 138 0
-152 -128 0
-152 -131 0
152 128 131 0
-153 -121 0
-153 -124 0
153 121 124 0
-154 -114 0
-154 -117 0
154 114 117 0
-155 2 0
-155 15 0
155 -2 -15 0
-156 4 0
-156 13 0
156 -4 -13 0
-157 155 0
-157 156 0
157 -155 -156 0
-158 -155 0
-158 -156 0
158 155 156 0
-159 -157 0
-159 -158 0
159 157 158 0
-160 -154 0
-160 159 0
160 154 -159 0
-161 154 0
-161 -159 0
161 -154 159 0
-162 -160 0
-162 -161 0
162 160 161 0
-163 6 0
-163 11 0
163 -6 -11 0
-164 162 0
-164 163 0
164 -162 -163 0
-165 -162 0
-165 -163 0
165 162 163 0
-166 -164 0
-166 -165 0
166 164 165 0
-167 -153 0
-167 166 0
167 153 -166 0
-168 153 0
-168 -166 0
168 -153 166 0
-169 -167 0
-169 -168 0
169 167 168 0
-170 8 0
-170 9 0
170 -8 -9 0
-171 169 0
-171 170 0
171 -169 -170 0
-172 -169 0
-172 -170 0
172 169 170 0
-173 -171 0
-173 -172 0
173 171 172 0
-174 -152 0
-174 173 0
174 152 -173 0
-175 152 0
-175 -173 0
175 -152 173 0
-176 -174 0
-176 -175 0
176 174 175 0
-177 7 0
-177 10 0
177 -7 -10 0
-178 176 0
-178 177 0
178 -176 -177 0
-179 -176 0
-179 -177 0
179 176 177 0
-180 -178 0
-180 -179 0
180 178 179 0
-181 -151 0
-181 180 0
181 151 -180 0
-182 151 0
-182 -180 0
182 -151 180 0
-183 -181 0
-183 -182 0
183 181 182 0
-184 5 0
-184 12 0
184 -5 -12 0
-185 183 0
-185 184 0
185 -183 -184 0
-186 -183 0
-186 -184 0
186 183 184 0
-187 -185 0
-187 -186 0
187 185 186 0
-188 -150 0
-188 187 0
188 150 -187 0
-189 150 0
-189 -187 0
189 -150 187 0
-190 -188 0
-190 -189 0
190 188 189 0
-191 1 0
-191 14 0
191 -1 -14 0
-192 190 0
-192 191 0
192 -190 -191 0
-193 -190 0
-193 -191 0
193 190 191 0
-194 -192 0
-194 -193 0
194 192 193 0
-195 149 0
-195 194 0
195 -149 -194 0
-196 -149 0
-196 -194 0
196 149 194 0
-197 -195 0
-197 -196 0
197 195 196 0
-198 3 0
-198 16 0
198 -3 -16 0
-199 197 0
-199 198 0
199 -197 -198 0
-200 -197 0
-200 -198 0
200 197 198 0
-201 -199 0
-201 -200 0
201 199 200 0
-202 21 0
-202 28 0
202 -21 -28 0
-203 -21 0
-203 -28 0
203 21 28 0
-204 -202 0
-204 -203 0
204 202 203 0
-205 19 0
-205 204 0
205 -19 -204 0
-206 -19 0
-206 -204 0
206 19 204 0
-207 -205 0
-207 -206 0
207 205 206 0
-208 20 0
-208 207 0
208 -20 -207 0
-209 -202 0
-209 -205 0
209 202 205 0
-210 39 0
-210 46 0
210 -39 -46 0
-211 -39 0
-211 -46 0
211 39 46 0
-212 -210 0
-212 -211 0
212 210 211 0
-213 -209 0
-213 212 0
213 209 -212 0
-214 209 0
-214 -212 0
214 -209 212 0
-215 -213 0
-215 -214 0
215 213 214 0
-216 32 0
-216 215 0
216 -32 -215 0
-217 -32 0
-217 -215 0
217 32 215 0
-218 -216 0
-218 -217 0
218 216 217 0
-219 208 0
-219 218 0
219 -208 -218 0
-220 -208 0
-220 -218 0
220 208 218 0
-221 -219 0
-221 -220 0
221 219 220 0
-222 31 0
-222 221 0
222 -31 -221 0
-223 -216 0
-223 -219 0
223 216 219 0
-224 -210 0
-224 -213 0
224 210 213 0
-225 65 0
-225 72 0
225 -65 -72 0
-226 -65 0
-226 -72 0
226 65 72 0
-227 -225 0
-227 -226 0
227 225 226 0
-228 -224 0
-228 227 0
228 224 -227 0
-229 224 0
-229 -227 0
229 -224 227 0
-230 -228 0
-230 -229 0
230 228 229 0
-231 58 0
-231 230 0
231 -58 -230 0
-232 -58 0
-232 -230 0
232 58 230 0
-233 -231 0
-233 -232 0
233 231 232 0
-234 -223 0
-234 233 0
234 223 -233 0
-235 223 0
-235 -233 0
235 -223 233 0
-236 -234 0
-236 -235 0
236 234 235 0
-237 51 0
-237 236 0
237 -51 -236 0
-238 -51 0
-238 -236 0
238 51 236 0
-239 -237 0
-239 -238 0
239 237 238 0
-240 222 0
-240 239 0
240 -222 -239 0
-241 -222 0
-241 -239 0
241 222 239 0
-242 -240 0
-242 -241 0
242 240 241 0
-243 50 0
-243 242 0
243 -50 -242 0
-244 -237 0
-244 -240 0
244 237 240 0
-245 -231 0
-245 -234 0
245 231 234 0
-246 -225 0
-246 -228 0
246 225 228 0
-247 99 0
-247 106 0
247 -99 -106 0
-248 -99 0
-248 -106 0
248 99 106 0
-249 -247 0
-249 -248 0
249 247 248 0
-250 -246 0
-250 249 0
250 246 -249 0
-251 246 0
-251 -249 0
251 -246 249 0
-252 -250 0
-252 -251 0
252 250 251 0
-253 92 0
-253 252 0
253 -92 -252 0
-254 -92 0
-254 -252 0
254 92 252 0
-255 -253 0
-255 -254 0
255 253 254 0
-256 -245 0
-256 255 0
256 245 -255 0
-257 245 0
-257 -255 0
257 -245 255 0
-258 -256 0
-258 -257 0
258 256 257 0
-259 85 0
-259 258 0
259 -85 -258 0
-260 -85 0
-260 -258 0
260 85 258 0
-261 -259 0
-261 -260 0
261 259 260 0
-262 -244 0
-262 261 0
262 244 -261 0
-263 244 0
-263 -261 0
263 -244 261 0
-264 -262 0
-264 -263 0
264 262 263 0
-265 78 0
-265 264 0
265 -78 -264 0
-266 -78 0
-266 -264 0
266 78 264 0
-267 -265 0
-267 -266 0
267 265 266 0
-268 243 0
-268 267 0
268 -243 -267 0
-269 -243 0
-269 -267 0
269 243 267 0
-270 -268 0
-270 -269 0
270 268 269 0
-271 77 0
-271 270 0
271 -77 -270 0
-272 -265 0
-272 -268 0
272 265 268 0
-273 -259 0
-273 -262 0
273 259 262 0
-274 -253 0
-274 -256 0
274 253 256 0
-275 -247 0
-275 -250 0
275 247 250 0
-276 141 0
-276 148 0
276 -141 -148 0
-277 -141 0
-277 -148 0
277 141 148 0
-278 -276 0
-278 -277 0
278 276 277 0
-279 -275 0
-279 278 0
279 275 -278 0
-280 275 0
-280 -278 0
280 -275 278 0
-281 -279 0
-281 -280 0
281 279 280 0
-282 134 0
-282 281 0
282 -134 -281 0
-283 -134 0
-283 -281 0
283 134 281 0
-284 -282 0
-284 -283 0
284 282 283 0
-285 -274 0
-285 284 0
285 274 -284 0
-286 274 0
-286 -284 0
286 -274 284 0
-287 -285 0
-287 -286 0
287 285 286 0
-288 127 0
-288 287 0
288 -127 -287 0
-289 -127 0
-289 -287 0
289 127 287 0
-290 -288 0
-290 -289 0
290 288 289 0
-291 -273 0
-291 290 0
291 273 -290 0
-292 273 0
-292 -290 0
292 -273 290 0
-293 -291 0
-293 -292 0
293 291 292 0
-294 120 0
-294 293 0
294 -120 -293 0
-295 -120 0
-295 -293 0
295 120 293 0
-296 -294 0
-296 -295 0
296 294 295 0
-297 -272 0
-297 296 0
297 272 -296 0
-298 272 0
-298 -296 0
298 -272 296 0
-299 -297 0
-299 -298 0
299 297 298 0
-300 113 0
-300 299 0
300 -113 -299 0
-301 -113 0
-301 -299 0
301 113 299 0
-302 -300 0
-302 -301 0
302 300 301 0
-303 271 0
-303 302 0
303 -271 -302 0
-304 -271 0
-304 -302 0
304 271 302 0
-305 -303 0
-305 -304 0
305 303 304 0
-306 112 0
-306 305 0
306 -112 -305 0
-307 -300 0
-307 -303 0
307 300 303 0
-308 -294 0
-308 -297 0
308 294 297 0
-309 -288 0
-309 -291 0
309 288 291 0
-310 -282 0
-310 -285 0
310 282 285 0
-311 -276 0
-311 -279 0
311 276 279 0
-312 191 0
-312 198 0
312 -191 -198 0
-313 -191 0
-313 -198 0
313 191 198 0
-314 -312 0
-314 -313 0
314 312 313 0
-315 -311 0
-315 314 0
315 311 -314 0
-316 311 0
-316 -314 0
316 -311 314 0
-317 -315 0
-317 -316 0
317 315 316 0
-318 184 0
-318 317 0
318 -184 -317 0
-319 -184 0
-319 -317 0
319 184 317 0
-320 -318 0
-320 -319 0
320 318 319 0
-321 -310 0
-321 320 0
321 310 -320 0
-322 310 0
-322 -320 0
322 -310 320 0
-323 -321 0
-323 -322 0
323 321 322 0
-324 177 0
-324 323 0
324 -177 -323 0
-325 -177 0
-325 -323 0
325 177 323 0
-326 -324 0
-326 -325 0
326 324 325 0
-327 -309 0
-327 326 0
327 309 -326 0
-328 309 0
-328 -326 0
328 -309 326 0
-329 -327 0
-329 -328 0
329 327 328 0
-330 170 0
-330 329 0
330 -170 -329 0
-331 -170 0
-331 -329 0
331 170 329 0
-332 -330 0
-332 -331 0
332 330 331 0
-333 -308 0
-333 332 0
333 308 -332 0
-334 308 0
-334 -332 0
334 -308 332 0
-335 -333 0
-335 -334 0
335 333 334 0
-336 163 0
-336 335 0
336 -163 -335 0
-337 -163 0
-337 -335 0
337 163 335 0
-338 -336 0
-338 -337 0
338 336 337 0
-339 -307 0
-339 338 0
339 307 -338 0
-340 307 0
-340 -338 0
340 -307 338 0
-341 -339 0
-341 -340 0
341 339 340 0
-342 156 0
-342 341 0
342 -156 -341 0
-343 -156 0
-343 -341 0
343 156 341 0
-344 -342 0
-344 -343 0
344 342 343 0
-345 306 0
-345 344 0
345 -306 -344 0
-346 -306 0
-346 -344 0
346 306 344 0
-347 -345 0
-347 -346 0
347 345 346 0
-348 155 0
-348 347 0
348 -155 -347 0
-349 -155 0
-349 -347 0
349 155 347 0
-350 -348 0
-350 -349 0
350 348 349 0
-351 201 0
-351 -350 0
-352 -201 0
-352 350 0
353 351 352 0
-354 -147 0
-354 -148 0
354 147 148 0
-355 -149 0
-355 -354 0
355 149 354 0
-356 -112 0
-356 -305 0
356 112 305 0
-357 -306 0
-357 -356 0
357 306 356 0
-358 355 0
-358 -357 0
-359 -355 0
-359 357 0
360 358 359 0
361 -353 -360 0
-362 -105 0
-362 -106 0
362 105 106 0
-363 -107 0
-363 -362 0
363 107 362 0
-364 -77 0
-364 -270 0
364 77 270 0
-365 -271 0
-365 -364 0
365 271 364 0
-366 363 0
-366 -365 0
-367 -363 0
-367 365 0
368 366 367 0
369 -361 -368 0
-370 -71 0
-370 -72 0
370 71 72 0
-371 -73 0
-371 -370 0
371 73 370 0
-372 -50 0
-372 -242 0
372 50 242 0
-373 -243 0
-373 -372 0
373 243 372 0
-374 371 0
-374 -373 0
-375 -371 0
-375 373 0
376 374 375 0
377 -369 -376 0
-378 -45 0
-378 -46 0
378 45 46 0
-379 -47 0
-379 -378 0
379 47 378 0
-380 -31 0
-380 -221 0
380 31 221 0
-381 -222 0
-381 -380 0
381 222 380 0
-382 379 0
-382 -381 0
-383 -379 0
-383 381 0
384 382 383 0
385 -377 -384 0
-386 -27 0
-386 -28 0
386 27 28 0
-387 -29 0
-387 -386 0
387 29 386 0
-388 -20 0
-388 -207 0
388 20 207 0
-389 -208 0
-389 -388 0
389 208 388 0
-390 387 0
-390 -389 0
-391 -387 0
-391 389 0
392 390 391 0
393 -385 -392 0
-393 0
